nN = 10;
nR = 30;
nH = 2;

a = [[20, 19, 24, 16, 25, 15, 21, 24, 19, 22, 18, 18, 18, 15, 20, 21, 22, 21, 19, 20, 19, 17, 16, 15, 20, 20, 20, 25, 22, 23], [20, 19, 18, 15, 21, 21, 19, 15, 21, 19, 16, 20, 15, 17, 25, 23, 15, 24, 23, 22, 20, 25, 21, 19, 21, 20, 16, 18, 18, 25], [24, 22, 18, 25, 18, 22, 22, 17, 16, 18, 16, 20, 19, 18, 19, 23, 16, 20, 20, 17, 24, 18, 15, 24, 18, 21, 23, 21, 15, 25], [17, 17, 24, 22, 19, 25, 19, 15, 18, 22, 22, 24, 16, 15, 19, 15, 25, 20, 16, 20, 16, 20, 21, 18, 18, 21, 23, 15, 18, 15], [17, 25, 15, 22, 17, 15, 23, 21, 23, 20, 18, 19, 23, 20, 25, 19, 20, 22, 20, 17, 23, 20, 20, 17, 18, 24, 16, 20, 22, 22], [24, 20, 22, 23, 21, 21, 22, 21, 17, 24, 23, 15, 16, 17, 24, 23, 22, 17, 23, 19, 19, 21, 22, 24, 23, 17, 21, 25, 21, 17], [17, 20, 21, 15, 19, 19, 25, 24, 18, 17, 21, 16, 22, 16, 20, 20, 18, 20, 17, 22, 19, 17, 22, 19, 20, 23, 24, 20, 18, 16], [17, 22, 19, 22, 21, 20, 25, 18, 22, 20, 18, 23, 21, 22, 19, 18, 25, 19, 18, 17, 23, 16, 22, 21, 23, 19, 24, 21, 15, 22], [24, 18, 19, 18, 25, 19, 15, 25, 17, 22, 23, 21, 19, 18, 25, 23, 16, 24, 25, 23, 22, 15, 23, 15, 20, 23, 23, 20, 25, 17], [15, 17, 21, 23, 16, 21, 19, 23, 18, 17, 25, 18, 20, 15, 21, 15, 15, 16, 24, 25, 21, 18, 19, 24, 22, 19, 17, 20, 18, 21]];
c = [[[0, 0, 0, 0, 0, 0, 0, 0, 0, 0, 0, 0, 0, 0, 0, 0, 0, 0, 0, 0, 0, 0, 0, 0, 0, 0, 0, 0, 0, 0], [39, 48, 47, 39, 45, 45, 49, 44, 46, 50, 39, 37, 41, 43, 44, 31, 46, 46, 31, 38, 39, 44, 40, 42, 48, 32, 40, 38, 33, 43], [30, 30, 47, 33, 41, 38, 49, 37, 44, 48, 50, 37, 46, 33, 32, 45, 36, 36, 41, 35, 45, 46, 47, 50, 50, 44, 48, 44, 48, 46], [47, 42, 50, 39, 38, 32, 45, 43, 47, 38, 48, 31, 44, 43, 36, 32, 43, 49, 43, 31, 39, 33, 50, 44, 37, 43, 39, 46, 32, 40], [39, 32, 33, 34, 42, 46, 35, 48, 32, 30, 45, 41, 42, 40, 48, 47, 43, 41, 41, 30, 45, 39, 48, 44, 46, 47, 33, 42, 30, 39], [47, 40, 39, 35, 30, 34, 35, 38, 42, 36, 42, 38, 35, 42, 43, 38, 46, 32, 45, 50, 43, 48, 42, 31, 41, 36, 32, 42, 42, 42], [44, 35, 48, 30, 35, 49, 30, 44, 47, 40, 48, 48, 50, 48, 47, 47, 45, 45, 36, 50, 43, 34, 37, 46, 37, 40, 44, 31, 35, 39], [32, 38, 44, 49, 34, 47, 36, 30, 35, 49, 47, 43, 34, 35, 32, 43, 49, 41, 35, 33, 34, 38, 46, 36, 42, 43, 44, 37, 43, 45], [50, 43, 41, 40, 37, 37, 43, 37, 38, 46, 37, 40, 45, 34, 49, 46, 40, 47, 48, 44, 36, 50, 42, 38, 36, 36, 31, 40, 44, 33], [33, 34, 49, 40, 47, 46, 39, 50, 50, 47, 33, 39, 49, 49, 47, 48, 45, 39, 36, 42, 36, 34, 40, 40, 41, 36, 50, 34, 49, 42]], [[0, 0, 0, 0, 0, 0, 0, 0, 0, 0, 0, 0, 0, 0, 0, 0, 0, 0, 0, 0, 0, 0, 0, 0, 0, 0, 0, 0, 0, 0], [0, 0, 0, 0, 0, 0, 0, 0, 0, 0, 0, 0, 0, 0, 0, 0, 0, 0, 0, 0, 0, 0, 0, 0, 0, 0, 0, 0, 0, 0], [39, 31, 48, 31, 35, 36, 34, 32, 45, 48, 35, 32, 49, 42, 43, 40, 34, 41, 38, 32, 36, 30, 42, 30, 48, 44, 39, 34, 44, 40], [31, 47, 44, 35, 44, 45, 45, 50, 38, 33, 36, 49, 42, 33, 34, 41, 47, 37, 36, 30, 40, 43, 30, 32, 45, 30, 43, 33, 49, 40], [31, 33, 40, 37, 49, 50, 39, 30, 47, 30, 31, 30, 37, 42, 49, 41, 32, 37, 35, 49, 43, 47, 38, 44, 44, 43, 31, 32, 41, 36], [39, 35, 48, 38, 49, 46, 40, 43, 37, 49, 44, 44, 42, 36, 38, 50, 33, 48, 42, 47, 39, 34, 46, 39, 49, 34, 44, 36, 45, 41], [36, 47, 30, 39, 31, 36, 45, 39, 36, 30, 36, 42, 45, 44, 40, 41, 46, 32, 46, 43, 45, 35, 33, 32, 39, 38, 40, 35, 44, 39], [40, 48, 50, 42, 48, 38, 38, 36, 35, 50, 34, 42, 37, 34, 49, 42, 42, 43, 49, 32, 43, 42, 31, 45, 47, 32, 44, 41, 38, 46], [44, 50, 47, 41, 40, 50, 34, 31, 45, 40, 31, 40, 47, 33, 49, 45, 38, 43, 39, 39, 32, 45, 48, 46, 30, 38, 43, 36, 42, 30], [39, 47, 50, 35, 34, 37, 38, 33, 34, 48, 47, 45, 41, 36, 46, 43, 38, 37, 30, 45, 45, 38, 30, 31, 32, 42, 44, 47, 42, 33]], [[0, 0, 0, 0, 0, 0, 0, 0, 0, 0, 0, 0, 0, 0, 0, 0, 0, 0, 0, 0, 0, 0, 0, 0, 0, 0, 0, 0, 0, 0], [0, 0, 0, 0, 0, 0, 0, 0, 0, 0, 0, 0, 0, 0, 0, 0, 0, 0, 0, 0, 0, 0, 0, 0, 0, 0, 0, 0, 0, 0], [0, 0, 0, 0, 0, 0, 0, 0, 0, 0, 0, 0, 0, 0, 0, 0, 0, 0, 0, 0, 0, 0, 0, 0, 0, 0, 0, 0, 0, 0], [47, 35, 38, 39, 36, 48, 42, 31, 32, 30, 44, 35, 50, 42, 43, 50, 31, 49, 39, 40, 42, 49, 43, 40, 31, 36, 40, 30, 36, 46], [46, 35, 50, 32, 38, 41, 46, 34, 34, 37, 49, 40, 32, 35, 44, 35, 50, 46, 48, 44, 50, 39, 44, 43, 34, 40, 40, 42, 38, 49], [50, 47, 38, 32, 44, 48, 39, 32, 30, 38, 48, 36, 35, 40, 39, 33, 39, 30, 30, 43, 32, 40, 48, 46, 30, 38, 39, 33, 43, 36], [39, 49, 44, 37, 35, 43, 32, 39, 49, 31, 39, 48, 44, 44, 48, 36, 42, 40, 42, 31, 50, 44, 50, 35, 48, 40, 32, 46, 38, 38], [36, 30, 41, 38, 40, 46, 30, 41, 37, 33, 31, 40, 33, 31, 38, 45, 37, 30, 45, 43, 41, 48, 45, 36, 44, 39, 49, 46, 48, 47], [49, 38, 36, 33, 31, 41, 45, 30, 43, 35, 39, 38, 45, 45, 44, 38, 33, 45, 37, 32, 44, 31, 44, 39, 45, 43, 43, 44, 49, 32], [47, 36, 42, 36, 31, 31, 43, 41, 44, 43, 41, 41, 32, 30, 50, 32, 46, 46, 43, 31, 49, 34, 30, 33, 37, 42, 38, 37, 35, 49]], [[0, 0, 0, 0, 0, 0, 0, 0, 0, 0, 0, 0, 0, 0, 0, 0, 0, 0, 0, 0, 0, 0, 0, 0, 0, 0, 0, 0, 0, 0], [0, 0, 0, 0, 0, 0, 0, 0, 0, 0, 0, 0, 0, 0, 0, 0, 0, 0, 0, 0, 0, 0, 0, 0, 0, 0, 0, 0, 0, 0], [0, 0, 0, 0, 0, 0, 0, 0, 0, 0, 0, 0, 0, 0, 0, 0, 0, 0, 0, 0, 0, 0, 0, 0, 0, 0, 0, 0, 0, 0], [0, 0, 0, 0, 0, 0, 0, 0, 0, 0, 0, 0, 0, 0, 0, 0, 0, 0, 0, 0, 0, 0, 0, 0, 0, 0, 0, 0, 0, 0], [30, 46, 34, 42, 41, 44, 43, 47, 47, 31, 39, 50, 43, 42, 33, 43, 33, 35, 35, 43, 36, 31, 41, 42, 33, 49, 31, 44, 31, 48], [36, 41, 45, 50, 41, 43, 31, 45, 42, 50, 35, 47, 34, 38, 31, 47, 33, 50, 39, 50, 47, 45, 31, 37, 32, 43, 43, 31, 49, 44], [50, 31, 39, 44, 49, 30, 41, 31, 35, 31, 45, 38, 41, 33, 32, 50, 50, 48, 32, 30, 38, 32, 45, 46, 39, 49, 37, 39, 33, 33], [48, 45, 48, 40, 44, 49, 36, 50, 32, 47, 40, 49, 37, 45, 50, 49, 33, 48, 44, 50, 38, 35, 36, 43, 33, 48, 41, 42, 40, 30], [37, 30, 38, 41, 43, 45, 33, 42, 49, 44, 31, 43, 39, 33, 47, 37, 45, 42, 42, 36, 31, 38, 38, 37, 42, 48, 38, 47, 37, 46], [31, 30, 41, 45, 38, 37, 33, 36, 49, 41, 30, 47, 38, 34, 47, 49, 40, 40, 46, 50, 33, 50, 41, 40, 33, 49, 46, 32, 46, 49]], [[0, 0, 0, 0, 0, 0, 0, 0, 0, 0, 0, 0, 0, 0, 0, 0, 0, 0, 0, 0, 0, 0, 0, 0, 0, 0, 0, 0, 0, 0], [0, 0, 0, 0, 0, 0, 0, 0, 0, 0, 0, 0, 0, 0, 0, 0, 0, 0, 0, 0, 0, 0, 0, 0, 0, 0, 0, 0, 0, 0], [0, 0, 0, 0, 0, 0, 0, 0, 0, 0, 0, 0, 0, 0, 0, 0, 0, 0, 0, 0, 0, 0, 0, 0, 0, 0, 0, 0, 0, 0], [0, 0, 0, 0, 0, 0, 0, 0, 0, 0, 0, 0, 0, 0, 0, 0, 0, 0, 0, 0, 0, 0, 0, 0, 0, 0, 0, 0, 0, 0], [0, 0, 0, 0, 0, 0, 0, 0, 0, 0, 0, 0, 0, 0, 0, 0, 0, 0, 0, 0, 0, 0, 0, 0, 0, 0, 0, 0, 0, 0], [30, 50, 45, 47, 50, 31, 38, 38, 46, 36, 48, 45, 30, 32, 37, 50, 46, 32, 38, 45, 38, 43, 50, 35, 45, 46, 31, 43, 43, 38], [48, 42, 50, 39, 49, 35, 36, 35, 40, 37, 36, 43, 47, 42, 43, 40, 36, 42, 49, 48, 40, 31, 45, 35, 48, 32, 48, 42, 49, 30], [49, 43, 35, 38, 50, 30, 44, 37, 41, 47, 48, 39, 35, 37, 37, 46, 30, 35, 30, 43, 32, 41, 35, 49, 46, 31, 32, 30, 41, 45], [48, 39, 40, 35, 30, 39, 37, 37, 50, 41, 47, 48, 37, 37, 30, 36, 45, 38, 49, 34, 46, 38, 43, 31, 37, 44, 50, 39, 31, 44], [33, 44, 43, 41, 37, 34, 30, 43, 43, 30, 42, 45, 41, 38, 47, 38, 49, 41, 44, 42, 40, 34, 33, 43, 35, 43, 33, 37, 47, 41]], [[0, 0, 0, 0, 0, 0, 0, 0, 0, 0, 0, 0, 0, 0, 0, 0, 0, 0, 0, 0, 0, 0, 0, 0, 0, 0, 0, 0, 0, 0], [0, 0, 0, 0, 0, 0, 0, 0, 0, 0, 0, 0, 0, 0, 0, 0, 0, 0, 0, 0, 0, 0, 0, 0, 0, 0, 0, 0, 0, 0], [0, 0, 0, 0, 0, 0, 0, 0, 0, 0, 0, 0, 0, 0, 0, 0, 0, 0, 0, 0, 0, 0, 0, 0, 0, 0, 0, 0, 0, 0], [0, 0, 0, 0, 0, 0, 0, 0, 0, 0, 0, 0, 0, 0, 0, 0, 0, 0, 0, 0, 0, 0, 0, 0, 0, 0, 0, 0, 0, 0], [0, 0, 0, 0, 0, 0, 0, 0, 0, 0, 0, 0, 0, 0, 0, 0, 0, 0, 0, 0, 0, 0, 0, 0, 0, 0, 0, 0, 0, 0], [0, 0, 0, 0, 0, 0, 0, 0, 0, 0, 0, 0, 0, 0, 0, 0, 0, 0, 0, 0, 0, 0, 0, 0, 0, 0, 0, 0, 0, 0], [42, 40, 47, 33, 34, 35, 49, 50, 37, 37, 33, 32, 37, 48, 31, 41, 50, 40, 31, 44, 39, 46, 40, 35, 36, 34, 41, 35, 47, 46], [46, 42, 50, 42, 48, 33, 33, 38, 42, 50, 36, 32, 41, 48, 34, 45, 47, 40, 39, 47, 46, 31, 30, 39, 34, 34, 48, 47, 45, 45], [35, 48, 38, 36, 43, 39, 41, 31, 40, 36, 44, 33, 38, 49, 38, 36, 44, 32, 36, 38, 40, 48, 49, 37, 47, 49, 49, 43, 50, 36], [35, 38, 36, 30, 42, 45, 36, 48, 43, 39, 31, 34, 49, 35, 37, 33, 40, 48, 47, 30, 33, 37, 38, 43, 40, 37, 47, 49, 45, 43]], [[0, 0, 0, 0, 0, 0, 0, 0, 0, 0, 0, 0, 0, 0, 0, 0, 0, 0, 0, 0, 0, 0, 0, 0, 0, 0, 0, 0, 0, 0], [0, 0, 0, 0, 0, 0, 0, 0, 0, 0, 0, 0, 0, 0, 0, 0, 0, 0, 0, 0, 0, 0, 0, 0, 0, 0, 0, 0, 0, 0], [0, 0, 0, 0, 0, 0, 0, 0, 0, 0, 0, 0, 0, 0, 0, 0, 0, 0, 0, 0, 0, 0, 0, 0, 0, 0, 0, 0, 0, 0], [0, 0, 0, 0, 0, 0, 0, 0, 0, 0, 0, 0, 0, 0, 0, 0, 0, 0, 0, 0, 0, 0, 0, 0, 0, 0, 0, 0, 0, 0], [0, 0, 0, 0, 0, 0, 0, 0, 0, 0, 0, 0, 0, 0, 0, 0, 0, 0, 0, 0, 0, 0, 0, 0, 0, 0, 0, 0, 0, 0], [0, 0, 0, 0, 0, 0, 0, 0, 0, 0, 0, 0, 0, 0, 0, 0, 0, 0, 0, 0, 0, 0, 0, 0, 0, 0, 0, 0, 0, 0], [0, 0, 0, 0, 0, 0, 0, 0, 0, 0, 0, 0, 0, 0, 0, 0, 0, 0, 0, 0, 0, 0, 0, 0, 0, 0, 0, 0, 0, 0], [43, 37, 33, 47, 38, 49, 42, 38, 35, 37, 39, 37, 35, 35, 33, 37, 43, 30, 37, 31, 45, 47, 39, 49, 43, 38, 48, 45, 35, 36], [42, 33, 34, 46, 42, 32, 49, 43, 36, 35, 39, 33, 44, 48, 30, 50, 46, 30, 36, 44, 37, 34, 35, 46, 39, 37, 43, 49, 41, 44], [45, 41, 35, 45, 42, 41, 45, 49, 32, 30, 39, 32, 50, 30, 33, 50, 36, 46, 32, 43, 50, 48, 38, 35, 46, 49, 43, 48, 46, 33]], [[0, 0, 0, 0, 0, 0, 0, 0, 0, 0, 0, 0, 0, 0, 0, 0, 0, 0, 0, 0, 0, 0, 0, 0, 0, 0, 0, 0, 0, 0], [0, 0, 0, 0, 0, 0, 0, 0, 0, 0, 0, 0, 0, 0, 0, 0, 0, 0, 0, 0, 0, 0, 0, 0, 0, 0, 0, 0, 0, 0], [0, 0, 0, 0, 0, 0, 0, 0, 0, 0, 0, 0, 0, 0, 0, 0, 0, 0, 0, 0, 0, 0, 0, 0, 0, 0, 0, 0, 0, 0], [0, 0, 0, 0, 0, 0, 0, 0, 0, 0, 0, 0, 0, 0, 0, 0, 0, 0, 0, 0, 0, 0, 0, 0, 0, 0, 0, 0, 0, 0], [0, 0, 0, 0, 0, 0, 0, 0, 0, 0, 0, 0, 0, 0, 0, 0, 0, 0, 0, 0, 0, 0, 0, 0, 0, 0, 0, 0, 0, 0], [0, 0, 0, 0, 0, 0, 0, 0, 0, 0, 0, 0, 0, 0, 0, 0, 0, 0, 0, 0, 0, 0, 0, 0, 0, 0, 0, 0, 0, 0], [0, 0, 0, 0, 0, 0, 0, 0, 0, 0, 0, 0, 0, 0, 0, 0, 0, 0, 0, 0, 0, 0, 0, 0, 0, 0, 0, 0, 0, 0], [0, 0, 0, 0, 0, 0, 0, 0, 0, 0, 0, 0, 0, 0, 0, 0, 0, 0, 0, 0, 0, 0, 0, 0, 0, 0, 0, 0, 0, 0], [33, 40, 39, 34, 43, 37, 49, 42, 30, 39, 40, 45, 47, 46, 39, 43, 49, 42, 34, 38, 46, 39, 36, 33, 38, 40, 50, 33, 39, 40], [34, 31, 42, 38, 35, 44, 40, 42, 41, 31, 39, 43, 39, 48, 33, 38, 42, 31, 45, 36, 36, 35, 33, 31, 30, 39, 50, 45, 41, 40]], [[0, 0, 0, 0, 0, 0, 0, 0, 0, 0, 0, 0, 0, 0, 0, 0, 0, 0, 0, 0, 0, 0, 0, 0, 0, 0, 0, 0, 0, 0], [0, 0, 0, 0, 0, 0, 0, 0, 0, 0, 0, 0, 0, 0, 0, 0, 0, 0, 0, 0, 0, 0, 0, 0, 0, 0, 0, 0, 0, 0], [0, 0, 0, 0, 0, 0, 0, 0, 0, 0, 0, 0, 0, 0, 0, 0, 0, 0, 0, 0, 0, 0, 0, 0, 0, 0, 0, 0, 0, 0], [0, 0, 0, 0, 0, 0, 0, 0, 0, 0, 0, 0, 0, 0, 0, 0, 0, 0, 0, 0, 0, 0, 0, 0, 0, 0, 0, 0, 0, 0], [0, 0, 0, 0, 0, 0, 0, 0, 0, 0, 0, 0, 0, 0, 0, 0, 0, 0, 0, 0, 0, 0, 0, 0, 0, 0, 0, 0, 0, 0], [0, 0, 0, 0, 0, 0, 0, 0, 0, 0, 0, 0, 0, 0, 0, 0, 0, 0, 0, 0, 0, 0, 0, 0, 0, 0, 0, 0, 0, 0], [0, 0, 0, 0, 0, 0, 0, 0, 0, 0, 0, 0, 0, 0, 0, 0, 0, 0, 0, 0, 0, 0, 0, 0, 0, 0, 0, 0, 0, 0], [0, 0, 0, 0, 0, 0, 0, 0, 0, 0, 0, 0, 0, 0, 0, 0, 0, 0, 0, 0, 0, 0, 0, 0, 0, 0, 0, 0, 0, 0], [0, 0, 0, 0, 0, 0, 0, 0, 0, 0, 0, 0, 0, 0, 0, 0, 0, 0, 0, 0, 0, 0, 0, 0, 0, 0, 0, 0, 0, 0], [34, 30, 47, 41, 34, 33, 34, 35, 43, 39, 45, 44, 37, 40, 41, 32, 38, 43, 43, 38, 48, 38, 42, 36, 32, 42, 42, 31, 38, 36]], [[0, 0, 0, 0, 0, 0, 0, 0, 0, 0, 0, 0, 0, 0, 0, 0, 0, 0, 0, 0, 0, 0, 0, 0, 0, 0, 0, 0, 0, 0], [0, 0, 0, 0, 0, 0, 0, 0, 0, 0, 0, 0, 0, 0, 0, 0, 0, 0, 0, 0, 0, 0, 0, 0, 0, 0, 0, 0, 0, 0], [0, 0, 0, 0, 0, 0, 0, 0, 0, 0, 0, 0, 0, 0, 0, 0, 0, 0, 0, 0, 0, 0, 0, 0, 0, 0, 0, 0, 0, 0], [0, 0, 0, 0, 0, 0, 0, 0, 0, 0, 0, 0, 0, 0, 0, 0, 0, 0, 0, 0, 0, 0, 0, 0, 0, 0, 0, 0, 0, 0], [0, 0, 0, 0, 0, 0, 0, 0, 0, 0, 0, 0, 0, 0, 0, 0, 0, 0, 0, 0, 0, 0, 0, 0, 0, 0, 0, 0, 0, 0], [0, 0, 0, 0, 0, 0, 0, 0, 0, 0, 0, 0, 0, 0, 0, 0, 0, 0, 0, 0, 0, 0, 0, 0, 0, 0, 0, 0, 0, 0], [0, 0, 0, 0, 0, 0, 0, 0, 0, 0, 0, 0, 0, 0, 0, 0, 0, 0, 0, 0, 0, 0, 0, 0, 0, 0, 0, 0, 0, 0], [0, 0, 0, 0, 0, 0, 0, 0, 0, 0, 0, 0, 0, 0, 0, 0, 0, 0, 0, 0, 0, 0, 0, 0, 0, 0, 0, 0, 0, 0], [0, 0, 0, 0, 0, 0, 0, 0, 0, 0, 0, 0, 0, 0, 0, 0, 0, 0, 0, 0, 0, 0, 0, 0, 0, 0, 0, 0, 0, 0], [0, 0, 0, 0, 0, 0, 0, 0, 0, 0, 0, 0, 0, 0, 0, 0, 0, 0, 0, 0, 0, 0, 0, 0, 0, 0, 0, 0, 0, 0]]];

q = [[[22, 115], [10, 123], [24, 111], [8, 113], [22, 106], [13, 107], [15, 108], [16, 112], [22, 110], [24, 123], [20, 105], [22, 122], [12, 120], [18, 116], [6, 115], [25, 116], [20, 119], [16, 106], [15, 117], [8, 123], [24, 109], [9, 118], [9, 117], [20, 114], [16, 107], [14, 109], [15, 108], [23, 122], [10, 109], [20, 117]], [[6, 119], [15, 125], [13, 110], [22, 108], [13, 113], [8, 113], [19, 109], [25, 123], [16, 108], [11, 123], [24, 110], [16, 115], [24, 121], [20, 118], [16, 118], [10, 124], [16, 122], [9, 109], [15, 105], [14, 111], [21, 125], [5, 105], [23, 119], [8, 114], [9, 122], [8, 120], [22, 122], [7, 108], [8, 107], [6, 110]], [[8, 118], [6, 118], [25, 108], [5, 105], [17, 123], [25, 121], [7, 108], [11, 123], [17, 111], [10, 108], [23, 122], [10, 123], [7, 108], [20, 123], [13, 119], [20, 107], [6, 112], [15, 122], [14, 120], [10, 123], [25, 115], [21, 119], [20, 118], [21, 106], [20, 115], [12, 124], [21, 111], [20, 117], [18, 117], [6, 105]], [[24, 110], [9, 110], [9, 107], [6, 113], [11, 105], [5, 125], [21, 116], [17, 108], [10, 109], [16, 114], [7, 118], [6, 124], [8, 114], [14, 116], [9, 108], [7, 111], [12, 105], [8, 114], [17, 109], [6, 122], [20, 108], [15, 123], [17, 123], [25, 117], [25, 125], [19, 120], [5, 111], [14, 118], [12, 114], [22, 109]], [[14, 108], [14, 115], [11, 120], [21, 117], [19, 110], [12, 125], [16, 116], [5, 118], [15, 107], [7, 113], [11, 112], [14, 107], [23, 105], [6, 112], [22, 110], [6, 117], [19, 118], [14, 106], [8, 108], [15, 110], [25, 121], [15, 116], [6, 116], [5, 117], [12, 125], [22, 123], [18, 116], [21, 105], [6, 113], [18, 106]], [[5, 119], [22, 118], [7, 121], [13, 110], [21, 124], [9, 111], [5, 117], [23, 105], [9, 123], [24, 123], [22, 109], [22, 110], [9, 108], [22, 122], [9, 122], [6, 109], [13, 105], [22, 108], [16, 108], [19, 112], [18, 119], [21, 107], [15, 108], [9, 115], [20, 122], [12, 107], [23, 115], [13, 113], [17, 125], [6, 112]], [[24, 107], [16, 108], [12, 117], [16, 121], [14, 105], [11, 110], [22, 117], [23, 121], [18, 118], [6, 108], [20, 123], [9, 116], [8, 119], [16, 107], [19, 121], [24, 115], [7, 116], [10, 115], [25, 108], [24, 110], [19, 111], [22, 109], [5, 110], [17, 125], [6, 113], [13, 120], [23, 110], [7, 118], [24, 118], [23, 109]], [[8, 109], [25, 123], [11, 119], [19, 113], [7, 112], [13, 122], [15, 124], [21, 106], [24, 124], [20, 108], [7, 113], [16, 105], [16, 122], [6, 117], [11, 115], [25, 115], [13, 119], [13, 120], [12, 108], [21, 108], [24, 121], [11, 125], [23, 117], [22, 114], [7, 117], [9, 114], [20, 108], [8, 120], [19, 121], [15, 112]], [[9, 125], [22, 120], [20, 105], [19, 120], [17, 109], [20, 122], [7, 119], [15, 119], [9, 120], [19, 116], [6, 125], [10, 109], [12, 112], [25, 120], [21, 116], [11, 125], [6, 120], [10, 115], [19, 113], [15, 109], [25, 123], [8, 123], [24, 114], [25, 110], [16, 120], [14, 106], [24, 124], [20, 109], [23, 111], [17, 117]], [[17, 106], [22, 115], [6, 118], [10, 111], [23, 119], [21, 117], [20, 120], [23, 122], [8, 122], [13, 108], [11, 121], [21, 111], [25, 124], [23, 120], [9, 105], [20, 119], [19, 114], [8, 118], [22, 122], [25, 124], [24, 105], [21, 121], [5, 122], [9, 113], [20, 112], [23, 106], [12, 108], [10, 119], [15, 105], [12, 111]]];
Q = [[39, 274], [34, 277], [36, 278], [31, 275], [34, 273], [36, 275], [38, 274], [36, 278], [39, 280], [39, 277]];
